
n_res = 6;
rcap = [83, 89, 465, 467, 444, 386];
rtype = [1, 1, 2, 2, 2, 2];
n_tasks = 50;
modes =  [{1, 2, 3, 4, 5, 6}, {7, 8, 9, 10, 11, 12}, {13, 14, 15, 16, 17, 18}, {19, 20, 21, 22, 23, 24}, {25, 26, 27, 28, 29, 30}, {31, 32, 33, 34, 35, 36}, {37, 38, 39, 40, 41, 42}, {43, 44, 45, 46, 47, 48}, {49, 50, 51, 52, 53, 54}, {55, 56, 57, 58, 59, 60}, {61, 62, 63, 64, 65, 66}, {67, 68, 69, 70, 71, 72}, {73, 74, 75, 76, 77, 78}, {79, 80, 81, 82, 83, 84}, {85, 86, 87, 88, 89, 90}, {91, 92, 93, 94, 95, 96}, {97, 98, 99, 100, 101, 102}, {103, 104, 105, 106, 107, 108}, {109, 110, 111, 112, 113, 114}, {115, 116, 117, 118, 119, 120}, {121, 122, 123, 124, 125, 126}, {127, 128, 129, 130, 131, 132}, {133, 134, 135, 136, 137, 138}, {139, 140, 141, 142, 143, 144}, {145, 146, 147, 148, 149, 150}, {151, 152, 153, 154, 155, 156}, {157, 158, 159, 160, 161, 162}, {163, 164, 165, 166, 167, 168}, {169, 170, 171, 172, 173, 174}, {175, 176, 177, 178, 179, 180}, {181, 182, 183, 184, 185, 186}, {187, 188, 189, 190, 191, 192}, {193, 194, 195, 196, 197, 198}, {199, 200, 201, 202, 203, 204}, {205, 206, 207, 208, 209, 210}, {211, 212, 213, 214, 215, 216}, {217, 218, 219, 220, 221, 222}, {223, 224, 225, 226, 227, 228}, {229, 230, 231, 232, 233, 234}, {235, 236, 237, 238, 239, 240}, {241, 242, 243, 244, 245, 246}, {247, 248, 249, 250, 251, 252}, {253, 254, 255, 256, 257, 258}, {259, 260, 261, 262, 263, 264}, {265, 266, 267, 268, 269, 270}, {271, 272, 273, 274, 275, 276}, {277, 278, 279, 280, 281, 282}, {283, 284, 285, 286, 287, 288}, {289, 290, 291, 292, 293, 294}, {295, 296, 297, 298, 299, 300}];
succ =  [{25, 24, 21, 9, 6}, {31, 21, 19, 13, 6}, {21, 17, 15, 6}, {29, 27, 26, 24, 22, 21, 20, 18, 15}, {29, 7}, {32, 30, 29, 27, 26, 23, 22, 20, 18}, {38, 37, 31, 30, 27, 26, 25, 23, 21, 18}, {32, 30, 27, 23, 21, 20, 19}, {31, 27, 23, 13}, {30, 27, 26, 23, 21, 20, 18}, {33, 32, 30, 29, 27, 25, 24, 22}, {38, 32, 31, 30, 29, 28, 27, 26, 24}, {36, 33, 30, 29, 28, 26, 20}, {50, 38, 30, 29, 28, 25, 23}, {50, 36, 35, 31, 30, 28, 23}, {49, 37, 29, 28, 27, 26}, {49, 38, 33, 30, 29, 28}, {50, 49, 48, 47, 36, 35, 33, 28}, {49, 48, 33, 28, 24}, {50, 49, 48, 47, 42, 38, 37, 35, 34}, {49, 48, 47, 44, 41, 36, 33, 28}, {50, 49, 48, 47, 41, 28}, {49, 48, 47, 44, 41, 39, 34, 33}, {47, 46, 45, 43, 37, 35}, {49, 46, 44, 41, 36, 34}, {50, 46, 42, 41, 40, 39, 34}, {48, 47, 46, 45, 44, 42, 41, 39}, {46, 42, 40, 39, 34}, {47, 42, 40, 35}, {48, 42, 41, 40, 39}, {49, 44, 43, 42}, {48, 47, 44, 40}, {46, 43, 42}, {45, 43}, {44, 41}, {40, 39}, {40, 39}, {39}, {}, {}, {}, {}, {}, {}, {}, {}, {}, {}, {}, {}];
n_opt = 300;
dur = [1, 6, 7, 15, 16, 20, 3, 8, 10, 15, 16, 17, 2, 3, 4, 7, 15, 17, 2, 3, 9, 11, 14, 17, 4, 5, 10, 17, 19, 20, 4, 10, 12, 14, 16, 20, 11, 16, 17, 18, 19, 20, 2, 5, 6, 8, 19, 20, 1, 3, 8, 10, 11, 19, 1, 2, 5, 6, 19, 20, 1, 6, 8, 14, 16, 20, 4, 6, 7, 9, 18, 19, 2, 3, 5, 8, 9, 16, 3, 8, 10, 11, 12, 15, 2, 7, 9, 10, 15, 18, 3, 13, 14, 16, 17, 18, 6, 11, 15, 16, 17, 19, 4, 9, 12, 13, 15, 19, 1, 3, 4, 5, 15, 16, 4, 9, 10, 11, 16, 17, 9, 10, 12, 16, 17, 20, 1, 5, 10, 18, 19, 20, 3, 9, 10, 14, 15, 20, 11, 12, 13, 14, 17, 20, 1, 8, 9, 11, 13, 14, 1, 14, 17, 18, 19, 20, 6, 9, 12, 13, 15, 16, 3, 5, 12, 13, 14, 18, 9, 10, 11, 15, 16, 20, 3, 5, 11, 18, 19, 20, 1, 8, 10, 17, 18, 19, 1, 2, 3, 9, 12, 13, 3, 7, 9, 10, 12, 13, 10, 14, 15, 16, 17, 19, 1, 5, 6, 9, 14, 20, 1, 12, 13, 15, 16, 18, 3, 4, 10, 11, 15, 20, 1, 2, 3, 5, 16, 20, 3, 5, 7, 10, 18, 19, 6, 7, 9, 11, 13, 18, 1, 2, 5, 10, 14, 18, 1, 2, 5, 6, 9, 18, 7, 9, 11, 13, 15, 18, 3, 13, 15, 16, 17, 19, 5, 13, 14, 15, 17, 18, 2, 5, 7, 13, 14, 18, 1, 4, 11, 12, 13, 18, 3, 4, 5, 6, 7, 19, 1, 12, 13, 17, 19, 20, 1, 5, 6, 12, 17, 19];
rreq = [|16, 16, 16, 16, 16, 16, 9, 9, 8, 5, 4, 3, 10, 7, 6, 6, 5, 3, 11, 10, 10, 10, 10, 10, 17, 14, 12, 7, 6, 3, 15, 15, 14, 12, 11, 10, 13, 10, 9, 7, 5, 2, 16, 15, 13, 12, 11, 10, 19, 16, 14, 13, 11, 9, 12, 12, 12, 11, 10, 10, 9, 9, 9, 8, 8, 8, 9, 9, 9, 9, 9, 9, 3, 2, 2, 1, 1, 1, 7, 7, 5, 5, 3, 3, 15, 12, 10, 10, 6, 5, 17, 16, 16, 16, 16, 16, 10, 9, 8, 7, 5, 4, 16, 16, 14, 11, 7, 5, 11, 9, 8, 7, 7, 6, 20, 19, 19, 19, 19, 19, 9, 9, 9, 9, 9, 9, 13, 13, 13, 12, 12, 12, 14, 13, 13, 12, 10, 9, 11, 10, 9, 9, 9, 8, 13, 12, 9, 8, 3, 1, 18, 17, 13, 10, 8, 6, 9, 7, 6, 5, 3, 1, 17, 14, 14, 13, 11, 9, 3, 2, 2, 2, 1, 1, 16, 15, 14, 13, 12, 12, 19, 19, 19, 19, 19, 19, 14, 14, 12, 10, 7, 5, 12, 11, 10, 10, 9, 8, 16, 14, 12, 8, 6, 6, 17, 15, 14, 13, 11, 11, 19, 18, 18, 17, 15, 15, 18, 17, 15, 14, 14, 12, 12, 11, 10, 8, 7, 7, 7, 6, 5, 5, 5, 4, 19, 18, 17, 16, 15, 15, 15, 14, 11, 11, 9, 7, 13, 11, 11, 10, 9, 9, 17, 14, 12, 12, 9, 8, 20, 17, 15, 14, 12, 9, 12, 10, 10, 6, 4, 2, 17, 14, 12, 12, 8, 7, 14, 14, 13, 13, 13, 12, 13, 13, 11, 11, 9, 8, 16, 14, 14, 12, 10, 8, 6, 6, 6, 6, 6, 6
 |15, 12, 10, 8, 6, 5, 15, 14, 14, 13, 12, 12, 20, 20, 20, 20, 20, 20, 12, 11, 9, 7, 5, 5, 4, 4, 4, 3, 2, 2, 7, 6, 5, 5, 5, 4, 13, 12, 8, 7, 4, 2, 12, 10, 8, 6, 6, 3, 13, 12, 11, 9, 9, 6, 17, 16, 15, 13, 13, 12, 17, 16, 15, 13, 12, 11, 17, 14, 13, 8, 7, 5, 17, 15, 15, 14, 14, 13, 9, 8, 7, 7, 6, 5, 17, 15, 13, 12, 10, 10, 15, 14, 12, 9, 9, 5, 15, 13, 11, 10, 9, 6, 9, 8, 8, 6, 6, 4, 6, 6, 6, 5, 5, 5, 13, 13, 11, 11, 10, 9, 16, 13, 12, 9, 6, 3, 9, 8, 8, 8, 8, 8, 18, 14, 10, 10, 6, 3, 17, 15, 12, 12, 10, 7, 18, 15, 13, 11, 6, 4, 15, 14, 14, 13, 12, 12, 14, 13, 12, 7, 6, 5, 10, 9, 9, 9, 8, 8, 15, 14, 14, 12, 11, 11, 17, 17, 13, 12, 9, 9, 13, 10, 10, 8, 6, 6, 5, 3, 3, 2, 2, 1, 15, 15, 13, 13, 10, 10, 17, 17, 16, 14, 14, 13, 19, 18, 17, 16, 16, 15, 16, 14, 14, 11, 9, 9, 10, 7, 6, 4, 3, 3, 14, 12, 9, 7, 5, 5, 6, 5, 5, 4, 4, 4, 13, 10, 9, 9, 7, 6, 9, 6, 5, 5, 2, 1, 18, 17, 15, 14, 14, 13, 18, 15, 13, 12, 9, 6, 12, 11, 11, 9, 8, 6, 15, 14, 13, 11, 10, 10, 18, 14, 14, 10, 6, 4, 9, 8, 7, 6, 5, 5, 12, 10, 7, 5, 4, 3, 16, 13, 11, 9, 7, 2, 19, 19, 17, 17, 15, 15
 |2, 2, 2, 2, 2, 2, 3, 3, 3, 3, 2, 2, 15, 12, 10, 10, 6, 6, 12, 11, 11, 11, 11, 11, 6, 6, 5, 3, 3, 1, 16, 12, 12, 7, 7, 4, 10, 8, 8, 6, 5, 3, 12, 11, 10, 8, 8, 7, 12, 11, 9, 9, 7, 6, 17, 16, 14, 12, 9, 5, 14, 11, 10, 7, 5, 5, 16, 16, 16, 15, 15, 15, 17, 15, 15, 13, 12, 12, 2, 2, 2, 1, 1, 1, 5, 4, 4, 4, 4, 4, 15, 15, 13, 12, 12, 11, 12, 12, 9, 7, 6, 4, 18, 17, 16, 15, 14, 13, 17, 14, 11, 9, 7, 7, 13, 12, 12, 12, 12, 12, 11, 10, 10, 9, 9, 9, 17, 16, 14, 13, 12, 11, 12, 10, 9, 8, 7, 6, 12, 12, 12, 12, 12, 12, 15, 14, 9, 9, 4, 3, 9, 8, 6, 6, 5, 4, 10, 10, 10, 9, 8, 8, 17, 16, 14, 13, 11, 10, 18, 18, 18, 17, 16, 16, 10, 9, 8, 7, 5, 5, 19, 19, 18, 17, 17, 16, 15, 14, 14, 13, 13, 13, 13, 13, 11, 10, 9, 8, 14, 14, 13, 12, 10, 9, 19, 17, 17, 17, 15, 15, 16, 15, 14, 14, 12, 12, 9, 8, 8, 8, 7, 7, 12, 11, 10, 8, 6, 5, 8, 6, 5, 3, 2, 2, 11, 11, 11, 11, 10, 10, 15, 15, 13, 12, 10, 10, 15, 15, 15, 15, 14, 14, 17, 14, 14, 11, 9, 8, 19, 18, 15, 12, 11, 10, 9, 7, 6, 4, 4, 3, 17, 14, 10, 10, 6, 5, 14, 13, 13, 12, 12, 12, 17, 17, 17, 17, 17, 17, 7, 5, 5, 4, 3, 3, 20, 18, 15, 13, 12, 10
 |4, 4, 3, 3, 2, 2, 8, 7, 7, 7, 7, 7, 11, 10, 10, 10, 9, 9, 18, 17, 13, 11, 7, 2, 16, 14, 11, 9, 9, 6, 12, 11, 11, 11, 11, 11, 16, 14, 14, 10, 8, 8, 20, 19, 18, 18, 17, 17, 12, 9, 8, 8, 6, 3, 9, 8, 6, 5, 5, 4, 17, 16, 15, 14, 11, 11, 17, 14, 13, 10, 8, 6, 20, 17, 15, 13, 13, 10, 18, 16, 16, 14, 14, 13, 12, 10, 7, 6, 4, 2, 15, 14, 14, 13, 13, 13, 17, 16, 15, 14, 14, 13, 12, 12, 11, 11, 10, 10, 5, 4, 4, 3, 3, 3, 17, 14, 14, 11, 8, 5, 19, 16, 13, 9, 8, 3, 13, 12, 11, 11, 10, 10, 12, 11, 10, 10, 9, 7, 20, 19, 19, 19, 19, 19, 17, 17, 13, 11, 9, 8, 17, 16, 15, 14, 12, 11, 18, 17, 14, 13, 13, 10, 17, 17, 16, 14, 14, 13, 16, 14, 11, 10, 8, 6, 14, 14, 13, 13, 11, 11, 7, 6, 5, 4, 4, 2, 9, 9, 8, 8, 6, 6, 5, 4, 4, 4, 3, 3, 19, 19, 19, 18, 18, 18, 6, 5, 4, 3, 2, 2, 8, 6, 6, 5, 4, 2, 11, 11, 11, 10, 10, 10, 6, 6, 6, 6, 5, 5, 9, 8, 8, 7, 7, 6, 11, 11, 11, 11, 11, 11, 16, 15, 15, 15, 15, 15, 15, 11, 9, 7, 7, 5, 16, 13, 11, 9, 6, 2, 7, 6, 5, 5, 3, 3, 17, 16, 16, 15, 15, 15, 9, 9, 9, 9, 9, 9, 19, 18, 16, 16, 14, 14, 17, 14, 9, 7, 5, 2, 9, 8, 7, 7, 7, 6, 15, 13, 13, 13, 11, 11
 |13, 12, 11, 10, 8, 7, 6, 5, 5, 4, 4, 3, 19, 15, 10, 7, 6, 4, 16, 12, 10, 9, 5, 3, 10, 10, 10, 10, 10, 10, 4, 3, 3, 3, 3, 3, 9, 7, 7, 5, 4, 4, 11, 10, 6, 5, 3, 2, 17, 15, 12, 10, 6, 6, 18, 16, 16, 16, 15, 14, 17, 15, 14, 14, 13, 11, 16, 14, 12, 7, 5, 2, 16, 14, 12, 10, 6, 2, 12, 11, 11, 11, 11, 11, 10, 9, 9, 7, 5, 3, 17, 15, 12, 9, 8, 5, 18, 18, 17, 16, 15, 14, 15, 14, 14, 14, 14, 14, 17, 15, 15, 13, 13, 12, 18, 15, 13, 13, 9, 9, 18, 16, 15, 11, 10, 7, 12, 8, 7, 5, 5, 3, 17, 14, 14, 13, 11, 10, 17, 16, 16, 13, 12, 12, 11, 11, 10, 10, 8, 8, 17, 11, 9, 8, 6, 1, 11, 11, 11, 10, 10, 9, 13, 11, 11, 9, 9, 8, 18, 16, 12, 9, 7, 3, 5, 5, 5, 5, 5, 5, 10, 10, 9, 9, 8, 8, 4, 4, 4, 4, 4, 4, 10, 10, 10, 9, 9, 9, 18, 17, 17, 17, 17, 17, 16, 15, 14, 13, 13, 12, 7, 7, 6, 6, 6, 5, 19, 17, 15, 14, 14, 12, 4, 4, 4, 3, 3, 3, 3, 2, 2, 1, 1, 1, 19, 17, 16, 16, 15, 14, 17, 15, 15, 13, 13, 12, 9, 8, 8, 6, 6, 5, 10, 9, 9, 9, 8, 8, 16, 16, 16, 16, 16, 16, 18, 18, 14, 12, 10, 9, 18, 13, 10, 10, 5, 5, 8, 8, 8, 8, 8, 8, 9, 9, 9, 8, 8, 8, 7, 6, 4, 3, 3, 1, 17, 17, 16, 13, 12, 12
 |17, 16, 15, 14, 12, 12, 13, 10, 10, 8, 7, 7, 10, 9, 9, 9, 8, 7, 2, 1, 1, 1, 1, 1, 13, 11, 10, 8, 7, 6, 11, 10, 9, 9, 8, 7, 16, 13, 13, 11, 6, 5, 10, 10, 9, 9, 8, 7, 12, 10, 8, 5, 4, 3, 8, 7, 6, 4, 3, 3, 8, 7, 6, 4, 4, 2, 14, 11, 8, 6, 5, 1, 18, 18, 18, 18, 18, 18, 12, 11, 11, 10, 10, 10, 11, 7, 7, 6, 4, 1, 9, 8, 6, 5, 4, 4, 12, 11, 11, 9, 8, 5, 9, 7, 7, 6, 5, 5, 3, 3, 3, 3, 3, 3, 10, 8, 7, 5, 4, 3, 18, 15, 13, 12, 11, 9, 20, 16, 14, 13, 10, 10, 17, 14, 13, 13, 9, 8, 18, 14, 13, 11, 9, 6, 2, 2, 2, 2, 1, 1, 16, 13, 13, 10, 7, 6, 20, 18, 15, 13, 11, 10, 18, 17, 16, 15, 14, 12, 20, 17, 15, 12, 12, 9, 10, 7, 7, 5, 3, 2, 17, 15, 15, 14, 13, 11, 9, 8, 8, 8, 8, 8, 9, 7, 6, 5, 5, 3, 13, 11, 10, 10, 8, 6, 19, 16, 13, 9, 9, 6, 14, 13, 13, 10, 9, 8, 10, 9, 9, 9, 8, 8, 4, 3, 3, 3, 3, 3, 6, 4, 4, 4, 3, 2, 18, 16, 13, 7, 7, 4, 17, 16, 16, 16, 15, 15, 12, 12, 12, 12, 11, 11, 8, 7, 7, 7, 7, 7, 10, 9, 7, 7, 5, 5, 11, 10, 8, 8, 6, 5, 5, 4, 4, 3, 3, 3, 11, 10, 10, 9, 9, 9, 17, 14, 13, 12, 12, 11, 11, 10, 7, 6, 4, 1, 12, 12, 9, 6, 3, 3|];